9 40 4 26 36 37 71 75 33 19 9 51 94 14 79 15 43 76 75 96 88 14 89 16 60 45 89 59 59 75 45 1 66 78 62 58 65 66 83 100 52 6 56 7 68 91 86 76 70 22 4 6 97 85 31 25 7 35 21 32 58 83 54 100 66 55 32 6 92 48 21 51 76 96 100 98 28 95 58 44 74 81 26 25 59 40 67 52 1 2 8 62 33 27 53 95 58 51 49 18 